Route #1: 9 15 42 1 37 10
Route #2: 35 26 34 32 8 13 18
Route #3: 39 24 44 33 14
Route #4: 43 41 27 29 31 5
Route #5: 2 4 11 3 28 6 12
Route #6: 40 7 16 20 38 25 23 17
Route #7: 21 22 30 36 19
cost 1270.9898681640625